17,9	0,0	19,3	14,2	0,0	0,0	0,0	0,0	0,0	6,5
15,2	14,7	0,0	17,2	5,8	0,0	0,0	13,0	0,0	0,0
0,0	0,0	9,4	0,0	6,9	7,5	0,0	0,0	15,0	0,0
12,9	0,0	11,5	0,0	0,0	0,0	19,3	0,0	0,0	0,0
0,0	12,0	0,0	8,2	19,6	0,0	0,0	7,2	0,0	0,0
0,0	10,6	7,1	0,0	11,8	17,9	0,0	0,0	6,7	0,0
0,0	16,4	0,0	9,0	0,0	0,0	17,9	0,0	0,0	12,4
10,1	0,0	13,9	0,0	0,0	0,0	0,0	0,0	0,0	11,6
0,0	6,6	0,0	17,6	18,0	0,0	0,0	8,1	0,0	0,0
0,0	0,0	14,6	0,0	0,0	5,3	8,3	0,0	0,0	14,8
									
4,8	4,7	3,7	4,3	4,5	3,1	3,2	3,1	2,7	3,9
